NAME: random-12-8386
TYPE: TSP
COMMENT: size=12 seed=8386
DIMENSION: 26
EDGE_WEIGHT_TYPE: EUC_2D
NODE_COORD_SECTION
+0 502 473
-0 502 473
+1 831 100
-1 66 184
+2 966 488
-2 88 5
+3 616 229
-3 126 184
+4 906 986
-4 135 912
+5 811 161
-5 141 708
+6 695 692
-6 377 807
+7 240 950
-7 891 859
+8 232 556
-8 376 794
+9 559 593
-9 924 145
+10 325 759
-10 878 597
+11 649 547
-11 496 33
+12 842 429
-12 117 176
PRECEDENCE_SECTION
+0 -0
+1 -1
+2 -2
+3 -3
+4 -4
+5 -5
+6 -6
+7 -7
+8 -8
+9 -9
+10 -10
+11 -11
+12 -12
EOF
